20.52 0.15 3.02 24.51 0.28 2.41 12.1 0.3 2.08 10.62 0.29 4.82
21.94 0.11 3.96 15.73 0.28 3.12 29.86 0.13 4.42 19.68 0.26 2.77
16.5 0.2 4.79 26.64 0.2 4.23 17.7 0.23 4.55 20.76 0.18 3.88
27.69 0.18 3.94 21.33 0.18 2.36 27.55 0.23 3.8 14.08 0.16 3.48
17.22 0.15 4.71 19.39 0.16 3.57 17.18 0.11 2.91 29.27 0.19 3.26
17.13 0.29 4.9 14.18 0.21 2.96 13.68 0.19 2.15 25.92 0.15 2.7
22.83 0.26 2.28 14.62 0.14 2.95 10.89 0.26 3.49 21.09 0.18 3.28
17.61 0.23 2.23 22.1 0.24 3.87 18.22 0.2 3.01 17.41 0.19 3.44
27.81 0.11 3.3 21.58 0.19 4.86 29.28 0.15 2.4 11.71 0.13 2.87
28.89 0.2 4.97 19.33 0.14 2.27 14.5 0.25 3.86 20.91 0.17 3.37
